decision_x1=[0,2];
decision_x2=[0,2];
decision_x3=[0,2];
decision_x4=[0,2];
decision_x5=[0,2];
decision_x6=[0,2];
decision_x7=[0,2];
decision_x8=[0,2];
decision_x9=[0,2];
decision_x10=[0,2];
random_y1=[0,2];
random_y2=[0,2];
random_y3=[0,2];
random_y4=[0,2];
constraint_x2_x1=[
0,0,5.9|
0,1,2.6|
0,2,9.4|
1,0,5.7|
1,1,6.5|
1,2,6.2|
2,0,9.3|
2,1,4.2|
2,2,6.3|
];
constraint_x3_x2=[
0,0,3.3|
0,1,2.7|
0,2,8.8|
1,0,4.3|
1,1,5.5|
1,2,6.1|
2,0,4.6|
2,1,9.6|
2,2,0.32|
];
constraint_x4_x1=[
0,0,5.6|
0,1,1.5|
0,2,9.7|
1,0,5.1|
1,1,6.2|
1,2,9.4|
2,0,2.8|
2,1,4.8|
2,2,5.4|
];
constraint_x4_x3=[
0,0,9|
0,1,9.6|
0,2,4.7|
1,0,6|
1,1,6.9|
1,2,0.79|
2,0,9.9|
2,1,0.81|
2,2,0.62|
];
constraint_x5_x1=[
0,0,0.65|
0,1,9|
0,2,4.8|
1,0,3.5|
1,1,8.3|
1,2,6|
2,0,0.59|
2,1,6.4|
2,2,2.5|
];
constraint_x5_x2=[
0,0,7|
0,1,9|
0,2,1.8|
1,0,2.2|
1,1,5.2|
1,2,2|
2,0,6.6|
2,1,3.3|
2,2,3.1|
];
constraint_x6_x2=[
0,0,9.8|
0,1,8.7|
0,2,5.6|
1,0,3.3|
1,1,7.7|
1,2,3.5|
2,0,9.5|
2,1,2.4|
2,2,4.3|
];
constraint_x6_x4=[
0,0,6.4|
0,1,2.9|
0,2,5.9|
1,0,9.6|
1,1,2|
1,2,6.1|
2,0,7.3|
2,1,0.75|
2,2,7.6|
];
constraint_x6_x5=[
0,0,5.6|
0,1,7.5|
0,2,6.7|
1,0,5.7|
1,1,1.3|
1,2,6.5|
2,0,7.3|
2,1,2.7|
2,2,3.5|
];
constraint_x7_x2=[
0,0,1.4|
0,1,9|
0,2,7.3|
1,0,1.2|
1,1,4.2|
1,2,5.2|
2,0,0.87|
2,1,3.3|
2,2,5.8|
];
constraint_x7_x4=[
0,0,3.4|
0,1,7.9|
0,2,5.3|
1,0,6|
1,1,9.7|
1,2,8|
2,0,4|
2,1,9.2|
2,2,8.5|
];
constraint_x7_x6=[
0,0,2.7|
0,1,3.8|
0,2,7.4|
1,0,3.6|
1,1,2.1|
1,2,2.7|
2,0,7.7|
2,1,5.7|
2,2,3.3|
];
constraint_x8_x1=[
0,0,6.6|
0,1,2.5|
0,2,1.1|
1,0,0.41|
1,1,9.1|
1,2,0.14|
2,0,3.9|
2,1,3|
2,2,4.9|
];
constraint_x8_x4=[
0,0,3.4|
0,1,5.5|
0,2,3.4|
1,0,1.5|
1,1,4.4|
1,2,1.5|
2,0,2.1|
2,1,6.4|
2,2,2.9|
];
constraint_x8_x6=[
0,0,1.8|
0,1,1.5|
0,2,9.8|
1,0,7.1|
1,1,3.4|
1,2,9.6|
2,0,8.2|
2,1,1.3|
2,2,0.61|
];
constraint_x8_x7=[
0,0,8.6|
0,1,6.9|
0,2,0.13|
1,0,6.4|
1,1,9.7|
1,2,5.2|
2,0,5.8|
2,1,7.3|
2,2,7.1|
];
constraint_x9_x2=[
0,0,9.2|
0,1,9|
0,2,1.9|
1,0,5.8|
1,1,3.9|
1,2,0.94|
2,0,3|
2,1,4.9|
2,2,6.8|
];
constraint_x9_x3=[
0,0,3.1|
0,1,9.6|
0,2,4.1|
1,0,1.3|
1,1,0.073|
1,2,2.6|
2,0,2.2|
2,1,9.6|
2,2,4.9|
];
constraint_x9_x6=[
0,0,1.2|
0,1,0.74|
0,2,2.9|
1,0,4.9|
1,1,9.8|
1,2,2.4|
2,0,6.2|
2,1,6.4|
2,2,5.7|
];
constraint_x9_x7=[
0,0,2.8|
0,1,4.8|
0,2,6|
1,0,8.8|
1,1,6.5|
1,2,7|
2,0,4.7|
2,1,8.8|
2,2,1.8|
];
constraint_x9_x8=[
0,0,2.2|
0,1,1.3|
0,2,4.6|
1,0,4.4|
1,1,2.2|
1,2,7.3|
2,0,9.5|
2,1,7.2|
2,2,8.5|
];
constraint_x10_x5=[
0,0,5.7|
0,1,6.2|
0,2,3.7|
1,0,6|
1,1,3.4|
1,2,3.9|
2,0,8.4|
2,1,2.4|
2,2,3.2|
];
constraint_x10_x7=[
0,0,0.14|
0,1,9|
0,2,5.1|
1,0,3|
1,1,7|
1,2,9.7|
2,0,6.9|
2,1,1.2|
2,2,1|
];
constraint_x1_y1=[
0,0,6.3|
0,1,3.7|
0,2,5.5|
1,0,3.4|
1,1,6.9|
1,2,3.4|
2,0,5.4|
2,1,4.6|
2,2,4.1|
];
constraint_x2_y2=[
0,0,1.3|
0,1,7.3|
0,2,0.12|
1,0,2.4|
1,1,3|
1,2,2|
2,0,9.6|
2,1,7.8|
2,2,5.2|
];
constraint_x3_y3=[
0,0,3.2|
0,1,9.3|
0,2,6.6|
1,0,8.6|
1,1,9.8|
1,2,0.0011|
2,0,1.2|
2,1,4.6|
2,2,8.8|
];
constraint_x4_y4=[
0,0,2|
0,1,9.7|
0,2,7.4|
1,0,1.6|
1,1,0.49|
1,2,0.1|
2,0,9.4|
2,1,3.5|
2,2,8.7|
];
initial_distribution_y1=[0.045,0.48,0.48];
initial_distribution_y2=[0.32,0.36,0.32];
initial_distribution_y3=[0.54,0.11,0.35];
initial_distribution_y4=[0.53,0.38,0.088];
transition_y1=[
0.37,0.25,0.38|
0.25,0.06,0.69|
0.27,0.44,0.29|
];
transition_y2=[
0.49,0.28,0.23|
0.31,0.33,0.35|
0.26,0.39,0.35|
];
transition_y3=[
0.12,0.46,0.41|
0.13,0.81,0.064|
0.38,0.43,0.19|
];
transition_y4=[
0.56,0.15,0.3|
0.37,0.46,0.17|
0.4,0.23,0.36|
];
